54872 100 1100 18 24 5 31 20 16 19 34 42 38 38 12 25 14 15 32 13 25 29 24 28 8 31 6 15 32 12 37 22 26 47 32 45 32 6 47 30 21 37 33 49 10 49 21 40 46 24 16 46 35 39 39 16 23 38 36 12 45 36 36 46 13 12 20 7 19 21 33 18 14 31 22 18 21 34 26 43 19 13 44 24 34 7 48 12 39 49 16 11 39 46 28 28 37 9 41 29 10 28 46 170 423 244 118 438 167 110 137 33 373 482 43 309 350 119 434 430 147 98 137 338 325 109 435 189 451 224 274 434 431 186 241 357 263 110 493 445 413 351 340 388 364 273 250 342 90 102 311 159 101 300 86 259 94 78 405 134 424 154 472 454 302 88 280 31 276 245 279 169 119 266 442 494 109 54 91 204 461 99 482 201 115 132 129 310 141 488 232 117 465 335 415 304 85 153 60 222 494 282 206
